#const n=20.
dim(20).
col_target(0,10).
col_target(1,11).
col_target(2,2).
col_target(3,4).
col_target(4,16).
col_target(5,11).
col_target(6,9).
col_target(7,10).
col_target(8,17).
col_target(9,13).
col_target(10,12).
col_target(11,12).
col_target(12,11).
col_target(13,19).
col_target(14,10).
col_target(15,13).
col_target(16,8).
col_target(17,8).
col_target(18,1).
col_target(19,2).
row_target(0,8).
row_target(1,1).
row_target(2,10).
row_target(3,9).
row_target(4,9).
row_target(5,7).
row_target(6,10).
row_target(7,12).
row_target(8,15).
row_target(9,7).
row_target(10,13).
row_target(11,12).
row_target(12,9).
row_target(13,11).
row_target(14,10).
row_target(15,13).
row_target(16,11).
row_target(17,13).
row_target(18,12).
row_target(19,7).
thermo(0,0,0).
thermo(0,1,1).
thermo(1,4,0).
thermo(1,3,1).
thermo(2,7,0).
thermo(2,6,1).
thermo(2,5,2).
thermo(3,9,0).
thermo(3,8,1).
thermo(4,10,0).
thermo(4,11,1).
thermo(4,12,2).
thermo(5,15,0).
thermo(5,14,1).
thermo(5,13,2).
thermo(6,16,0).
thermo(6,17,1).
thermo(6,18,2).
thermo(7,19,0).
thermo(7,39,1).
thermo(7,59,2).
thermo(7,79,3).
thermo(8,20,0).
thermo(8,40,1).
thermo(9,21,0).
thermo(9,41,1).
thermo(9,61,2).
thermo(9,81,3).
thermo(9,101,4).
thermo(9,121,5).
thermo(10,22,0).
thermo(10,2,1).
thermo(11,38,0).
thermo(11,37,1).
thermo(11,36,2).
thermo(11,35,3).
thermo(11,34,4).
thermo(11,33,5).
thermo(11,32,6).
thermo(11,31,7).
thermo(11,30,8).
thermo(11,29,9).
thermo(11,28,10).
thermo(11,27,11).
thermo(11,26,12).
thermo(11,25,13).
thermo(11,24,14).
thermo(11,23,15).
thermo(12,46,0).
thermo(12,45,1).
thermo(12,44,2).
thermo(12,43,3).
thermo(12,42,4).
thermo(13,47,0).
thermo(13,67,1).
thermo(14,48,0).
thermo(14,49,1).
thermo(14,50,2).
thermo(14,51,3).
thermo(14,52,4).
thermo(14,53,5).
thermo(14,54,6).
thermo(14,55,7).
thermo(14,56,8).
thermo(14,57,9).
thermo(15,66,0).
thermo(15,65,1).
thermo(15,64,2).
thermo(15,63,3).
thermo(15,62,4).
thermo(16,68,0).
thermo(16,69,1).
thermo(16,70,2).
thermo(16,71,3).
thermo(17,77,0).
thermo(17,76,1).
thermo(17,75,2).
thermo(17,74,3).
thermo(17,73,4).
thermo(18,78,0).
thermo(18,58,1).
thermo(19,80,0).
thermo(19,60,1).
thermo(20,82,0).
thermo(20,83,1).
thermo(20,84,2).
thermo(20,85,3).
thermo(20,86,4).
thermo(21,91,0).
thermo(21,90,1).
thermo(21,89,2).
thermo(21,88,3).
thermo(21,87,4).
thermo(22,92,0).
thermo(22,72,1).
thermo(23,93,0).
thermo(23,94,1).
thermo(24,95,0).
thermo(24,96,1).
thermo(24,97,2).
thermo(24,98,3).
thermo(24,99,4).
thermo(25,102,0).
thermo(25,122,1).
thermo(25,142,2).
thermo(26,111,0).
thermo(26,110,1).
thermo(26,109,2).
thermo(26,108,3).
thermo(26,107,4).
thermo(26,106,5).
thermo(26,105,6).
thermo(26,104,7).
thermo(26,103,8).
thermo(27,117,0).
thermo(27,116,1).
thermo(27,115,2).
thermo(27,114,3).
thermo(27,113,4).
thermo(27,112,5).
thermo(28,118,0).
thermo(28,138,1).
thermo(29,119,0).
thermo(29,139,1).
thermo(30,125,0).
thermo(30,124,1).
thermo(30,123,2).
thermo(31,126,0).
thermo(31,146,1).
thermo(32,127,0).
thermo(32,128,1).
thermo(32,129,2).
thermo(32,130,3).
thermo(32,131,4).
thermo(32,132,5).
thermo(32,133,6).
thermo(32,134,7).
thermo(32,135,8).
thermo(32,136,9).
thermo(32,137,10).
thermo(33,141,0).
thermo(33,161,1).
thermo(34,143,0).
thermo(34,144,1).
thermo(34,145,2).
thermo(35,147,0).
thermo(35,148,1).
thermo(35,149,2).
thermo(36,150,0).
thermo(36,151,1).
thermo(36,152,2).
thermo(36,153,3).
thermo(36,154,4).
thermo(36,155,5).
thermo(36,156,6).
thermo(36,157,7).
thermo(36,158,8).
thermo(36,159,9).
thermo(37,160,0).
thermo(37,140,1).
thermo(37,120,2).
thermo(37,100,3).
thermo(38,167,0).
thermo(38,166,1).
thermo(38,165,2).
thermo(38,164,3).
thermo(38,163,4).
thermo(38,162,5).
thermo(39,170,0).
thermo(39,169,1).
thermo(39,168,2).
thermo(40,171,0).
thermo(40,172,1).
thermo(40,173,2).
thermo(41,178,0).
thermo(41,177,1).
thermo(41,176,2).
thermo(41,175,3).
thermo(41,174,4).
thermo(42,180,0).
thermo(42,200,1).
thermo(43,184,0).
thermo(43,183,1).
thermo(43,182,2).
thermo(43,181,3).
thermo(44,186,0).
thermo(44,185,1).
thermo(45,190,0).
thermo(45,189,1).
thermo(45,188,2).
thermo(45,187,3).
thermo(46,191,0).
thermo(46,192,1).
thermo(46,193,2).
thermo(46,194,3).
thermo(46,195,4).
thermo(46,196,5).
thermo(46,197,6).
thermo(47,199,0).
thermo(47,179,1).
thermo(48,217,0).
thermo(48,216,1).
thermo(48,215,2).
thermo(48,214,3).
thermo(48,213,4).
thermo(48,212,5).
thermo(48,211,6).
thermo(48,210,7).
thermo(48,209,8).
thermo(48,208,9).
thermo(48,207,10).
thermo(48,206,11).
thermo(48,205,12).
thermo(48,204,13).
thermo(48,203,14).
thermo(48,202,15).
thermo(48,201,16).
thermo(49,223,0).
thermo(49,222,1).
thermo(50,235,0).
thermo(50,234,1).
thermo(50,233,2).
thermo(50,232,3).
thermo(50,231,4).
thermo(50,230,5).
thermo(50,229,6).
thermo(50,228,7).
thermo(50,227,8).
thermo(50,226,9).
thermo(50,225,10).
thermo(50,224,11).
thermo(51,237,0).
thermo(51,236,1).
thermo(52,239,0).
thermo(52,219,1).
thermo(53,240,0).
thermo(53,220,1).
thermo(54,249,0).
thermo(54,248,1).
thermo(54,247,2).
thermo(54,246,3).
thermo(54,245,4).
thermo(54,244,5).
thermo(54,243,6).
thermo(54,242,7).
thermo(55,250,0).
thermo(55,270,1).
thermo(56,255,0).
thermo(56,254,1).
thermo(56,253,2).
thermo(56,252,3).
thermo(56,251,4).
thermo(57,257,0).
thermo(57,256,1).
thermo(58,260,0).
thermo(58,280,1).
thermo(58,300,2).
thermo(58,320,3).
thermo(58,340,4).
thermo(58,360,5).
thermo(59,267,0).
thermo(59,266,1).
thermo(59,265,2).
thermo(59,264,3).
thermo(59,263,4).
thermo(59,262,5).
thermo(60,268,0).
thermo(60,288,1).
thermo(61,269,0).
thermo(61,289,1).
thermo(62,277,0).
thermo(62,276,1).
thermo(62,275,2).
thermo(62,274,3).
thermo(62,273,4).
thermo(62,272,5).
thermo(62,271,6).
thermo(63,283,0).
thermo(63,284,1).
thermo(63,285,2).
thermo(63,286,3).
thermo(63,287,4).
thermo(64,297,0).
thermo(64,296,1).
thermo(64,295,2).
thermo(64,294,3).
thermo(64,293,4).
thermo(64,292,5).
thermo(64,291,6).
thermo(64,290,7).
thermo(65,301,0).
thermo(65,281,1).
thermo(65,261,2).
thermo(65,241,3).
thermo(65,221,4).
thermo(66,303,0).
thermo(66,304,1).
thermo(66,305,2).
thermo(66,306,3).
thermo(66,307,4).
thermo(66,308,5).
thermo(66,309,6).
thermo(66,310,7).
thermo(66,311,8).
thermo(66,312,9).
thermo(66,313,10).
thermo(66,314,11).
thermo(66,315,12).
thermo(66,316,13).
thermo(66,317,14).
thermo(67,318,0).
thermo(67,298,1).
thermo(67,278,2).
thermo(67,258,3).
thermo(67,238,4).
thermo(67,218,5).
thermo(67,198,6).
thermo(68,319,0).
thermo(68,299,1).
thermo(68,279,2).
thermo(68,259,3).
thermo(69,321,0).
thermo(69,341,1).
thermo(70,331,0).
thermo(70,330,1).
thermo(70,329,2).
thermo(70,328,3).
thermo(70,327,4).
thermo(70,326,5).
thermo(70,325,6).
thermo(71,332,0).
thermo(71,333,1).
thermo(72,334,0).
thermo(72,335,1).
thermo(72,336,2).
thermo(72,337,3).
thermo(72,338,4).
thermo(72,339,5).
thermo(73,342,0).
thermo(73,322,1).
thermo(73,302,2).
thermo(73,282,3).
thermo(74,344,0).
thermo(74,324,1).
thermo(75,345,0).
thermo(75,346,1).
thermo(75,347,2).
thermo(75,348,3).
thermo(75,349,4).
thermo(75,350,5).
thermo(75,351,6).
thermo(75,352,7).
thermo(76,353,0).
thermo(76,373,1).
thermo(77,357,0).
thermo(77,356,1).
thermo(77,355,2).
thermo(77,354,3).
thermo(78,358,0).
thermo(78,378,1).
thermo(79,361,0).
thermo(79,362,1).
thermo(80,363,0).
thermo(80,343,1).
thermo(80,323,2).
thermo(81,365,0).
thermo(81,364,1).
thermo(82,372,0).
thermo(82,371,1).
thermo(82,370,2).
thermo(82,369,3).
thermo(82,368,4).
thermo(82,367,5).
thermo(82,366,6).
thermo(83,377,0).
thermo(83,376,1).
thermo(83,375,2).
thermo(83,374,3).
thermo(84,379,0).
thermo(84,359,1).
thermo(85,380,0).
thermo(85,381,1).
thermo(85,382,2).
thermo(85,383,3).
thermo(85,384,4).
thermo(85,385,5).
thermo(85,386,6).
thermo(86,387,0).
thermo(86,388,1).
thermo(86,389,2).
thermo(86,390,3).
thermo(86,391,4).
thermo(86,392,5).
thermo(86,393,6).
thermo(86,394,7).
thermo(86,395,8).
thermo(86,396,9).
thermo(86,397,10).
thermo(86,398,11).
thermo(86,399,12).
