#const n=6.
dim(6).
col_target(0,3).
col_target(1,4).
col_target(2,1).
col_target(3,2).
col_target(4,4).
col_target(5,3).
row_target(0,3).
row_target(1,3).
row_target(2,3).
row_target(3,2).
row_target(4,3).
row_target(5,3).
thermo(0,1,0).
thermo(0,0,1).
thermo(1,4,0).
thermo(1,3,1).
thermo(1,2,2).
thermo(2,6,0).
thermo(2,12,1).
thermo(2,18,2).
thermo(2,24,3).
thermo(3,7,0).
thermo(3,8,1).
thermo(3,9,2).
thermo(4,10,0).
thermo(4,16,1).
thermo(4,22,2).
thermo(4,28,3).
thermo(4,34,4).
thermo(5,13,0).
thermo(5,19,1).
thermo(6,14,0).
thermo(6,15,1).
thermo(7,20,0).
thermo(7,21,1).
thermo(8,23,0).
thermo(8,17,1).
thermo(8,11,2).
thermo(8,5,3).
thermo(9,25,0).
thermo(9,26,1).
thermo(9,27,2).
thermo(10,30,0).
thermo(10,31,1).
thermo(10,32,2).
thermo(10,33,3).
thermo(11,35,0).
thermo(11,29,1).
