#const n=15.
dim(15).
col_target(0,1).
col_target(1,12).
col_target(2,12).
col_target(3,7).
col_target(4,5).
col_target(5,10).
col_target(6,3).
col_target(7,9).
col_target(8,9).
col_target(9,5).
col_target(10,5).
col_target(11,5).
col_target(12,14).
col_target(13,7).
col_target(14,8).
row_target(0,9).
row_target(1,8).
row_target(2,8).
row_target(3,6).
row_target(4,8).
row_target(5,11).
row_target(6,8).
row_target(7,12).
row_target(8,1).
row_target(9,3).
row_target(10,7).
row_target(11,11).
row_target(12,5).
row_target(13,6).
row_target(14,9).
thermo(0,0,0).
thermo(0,15,1).
thermo(0,30,2).
thermo(0,45,3).
thermo(0,60,4).
thermo(0,75,5).
thermo(0,90,6).
thermo(0,105,7).
thermo(0,120,8).
thermo(0,135,9).
thermo(0,150,10).
thermo(0,165,11).
thermo(0,180,12).
thermo(0,195,13).
thermo(0,210,14).
thermo(1,1,0).
thermo(1,16,1).
thermo(1,31,2).
thermo(1,46,3).
thermo(1,61,4).
thermo(1,76,5).
thermo(1,91,6).
thermo(1,106,7).
thermo(1,121,8).
thermo(1,136,9).
thermo(1,151,10).
thermo(1,166,11).
thermo(2,3,0).
thermo(2,2,1).
thermo(3,4,0).
thermo(3,19,1).
thermo(4,7,0).
thermo(4,22,1).
thermo(5,8,0).
thermo(5,23,1).
thermo(5,38,2).
thermo(6,9,0).
thermo(6,24,1).
thermo(6,39,2).
thermo(6,54,3).
thermo(7,10,0).
thermo(7,11,1).
thermo(7,12,2).
thermo(8,14,0).
thermo(8,13,1).
thermo(9,17,0).
thermo(9,18,1).
thermo(10,20,0).
thermo(10,5,1).
thermo(11,21,0).
thermo(11,6,1).
thermo(12,25,0).
thermo(12,40,1).
thermo(12,55,2).
thermo(13,26,0).
thermo(13,41,1).
thermo(14,27,0).
thermo(14,28,1).
thermo(14,29,2).
thermo(15,37,0).
thermo(15,36,1).
thermo(15,35,2).
thermo(15,34,3).
thermo(15,33,4).
thermo(15,32,5).
thermo(16,42,0).
thermo(16,43,1).
thermo(17,44,0).
thermo(17,59,1).
thermo(18,47,0).
thermo(18,48,1).
thermo(19,50,0).
thermo(19,49,1).
thermo(20,51,0).
thermo(20,66,1).
thermo(21,53,0).
thermo(21,52,1).
thermo(22,58,0).
thermo(22,57,1).
thermo(22,56,2).
thermo(23,62,0).
thermo(23,63,1).
thermo(23,64,2).
thermo(24,65,0).
thermo(24,80,1).
thermo(24,95,2).
thermo(25,67,0).
thermo(25,68,1).
thermo(25,69,2).
thermo(25,70,3).
thermo(26,71,0).
thermo(26,86,1).
thermo(27,74,0).
thermo(27,73,1).
thermo(27,72,2).
thermo(28,79,0).
thermo(28,78,1).
thermo(28,77,2).
thermo(29,85,0).
thermo(29,84,1).
thermo(29,83,2).
thermo(29,82,3).
thermo(30,88,0).
thermo(30,87,1).
thermo(31,89,0).
thermo(31,104,1).
thermo(31,119,2).
thermo(32,94,0).
thermo(32,93,1).
thermo(32,92,2).
thermo(33,96,0).
thermo(33,81,1).
thermo(34,99,0).
thermo(34,98,1).
thermo(34,97,2).
thermo(35,100,0).
thermo(35,101,1).
thermo(35,102,2).
thermo(36,103,0).
thermo(36,118,1).
thermo(37,107,0).
thermo(37,108,1).
thermo(37,109,2).
thermo(37,110,3).
thermo(37,111,4).
thermo(37,112,5).
thermo(37,113,6).
thermo(37,114,7).
thermo(37,115,8).
thermo(38,116,0).
thermo(38,117,1).
thermo(39,133,0).
thermo(39,132,1).
thermo(39,131,2).
thermo(39,130,3).
thermo(39,129,4).
thermo(39,128,5).
thermo(39,127,6).
thermo(39,126,7).
thermo(39,125,8).
thermo(39,124,9).
thermo(39,123,10).
thermo(39,122,11).
thermo(40,134,0).
thermo(40,149,1).
thermo(41,139,0).
thermo(41,138,1).
thermo(41,137,2).
thermo(42,148,0).
thermo(42,147,1).
thermo(42,146,2).
thermo(42,145,3).
thermo(42,144,4).
thermo(42,143,5).
thermo(42,142,6).
thermo(42,141,7).
thermo(42,140,8).
thermo(43,160,0).
thermo(43,159,1).
thermo(43,158,2).
thermo(43,157,3).
thermo(43,156,4).
thermo(43,155,5).
thermo(43,154,6).
thermo(43,153,7).
thermo(43,152,8).
thermo(44,161,0).
thermo(44,162,1).
thermo(44,163,2).
thermo(44,164,3).
thermo(45,171,0).
thermo(45,170,1).
thermo(45,169,2).
thermo(45,168,3).
thermo(45,167,4).
thermo(46,174,0).
thermo(46,173,1).
thermo(46,172,2).
thermo(47,175,0).
thermo(47,176,1).
thermo(48,179,0).
thermo(48,178,1).
thermo(48,177,2).
thermo(49,181,0).
thermo(49,182,1).
thermo(49,183,2).
thermo(49,184,3).
thermo(50,185,0).
thermo(50,200,1).
thermo(50,215,2).
thermo(51,186,0).
thermo(51,201,1).
thermo(51,216,2).
thermo(52,192,0).
thermo(52,191,1).
thermo(52,190,2).
thermo(52,189,3).
thermo(52,188,4).
thermo(53,193,0).
thermo(53,208,1).
thermo(54,194,0).
thermo(54,209,1).
thermo(55,196,0).
thermo(55,211,1).
thermo(56,198,0).
thermo(56,197,1).
thermo(57,199,0).
thermo(57,214,1).
thermo(58,202,0).
thermo(58,187,1).
thermo(59,203,0).
thermo(59,204,1).
thermo(60,207,0).
thermo(60,206,1).
thermo(60,205,2).
thermo(61,212,0).
thermo(61,213,1).
thermo(62,218,0).
thermo(62,217,1).
thermo(63,219,0).
thermo(63,220,1).
thermo(63,221,2).
thermo(63,222,3).
thermo(63,223,4).
thermo(63,224,5).
