#const n=10.
dim(10).
col_target(0,1).
col_target(1,4).
col_target(2,3).
col_target(3,3).
col_target(4,7).
col_target(5,7).
col_target(6,5).
col_target(7,6).
col_target(8,8).
col_target(9,5).
row_target(0,6).
row_target(1,7).
row_target(2,2).
row_target(3,7).
row_target(4,3).
row_target(5,6).
row_target(6,2).
row_target(7,5).
row_target(8,5).
row_target(9,6).
thermo(0,0,0).
thermo(0,1,1).
thermo(0,2,2).
thermo(0,3,3).
thermo(0,4,4).
thermo(0,5,5).
thermo(0,6,6).
thermo(0,7,7).
thermo(0,8,8).
thermo(1,11,0).
thermo(1,10,1).
thermo(2,12,0).
thermo(2,13,1).
thermo(2,14,2).
thermo(2,15,3).
thermo(2,16,4).
thermo(2,17,5).
thermo(2,18,6).
thermo(3,20,0).
thermo(3,21,1).
thermo(4,22,0).
thermo(4,23,1).
thermo(5,24,0).
thermo(5,25,1).
thermo(6,28,0).
thermo(6,27,1).
thermo(6,26,2).
thermo(7,32,0).
thermo(7,42,1).
thermo(8,35,0).
thermo(8,34,1).
thermo(8,33,2).
thermo(9,37,0).
thermo(9,36,1).
thermo(10,46,0).
thermo(10,45,1).
thermo(10,44,2).
thermo(10,43,3).
thermo(11,47,0).
thermo(11,57,1).
thermo(12,49,0).
thermo(12,39,1).
thermo(12,29,2).
thermo(12,19,3).
thermo(12,9,4).
thermo(13,51,0).
thermo(13,41,1).
thermo(13,31,2).
thermo(14,52,0).
thermo(14,53,1).
thermo(14,54,2).
thermo(14,55,3).
thermo(15,56,0).
thermo(15,66,1).
thermo(15,76,2).
thermo(16,59,0).
thermo(16,69,1).
thermo(17,63,0).
thermo(17,62,1).
thermo(17,61,2).
thermo(18,64,0).
thermo(18,65,1).
thermo(19,67,0).
thermo(19,77,1).
thermo(19,87,2).
thermo(19,97,3).
thermo(20,71,0).
thermo(20,81,1).
thermo(21,72,0).
thermo(21,82,1).
thermo(22,73,0).
thermo(22,83,1).
thermo(22,93,2).
thermo(23,75,0).
thermo(23,74,1).
thermo(24,79,0).
thermo(24,89,1).
thermo(25,84,0).
thermo(25,94,1).
thermo(26,86,0).
thermo(26,85,1).
thermo(27,88,0).
thermo(27,78,1).
thermo(27,68,2).
thermo(27,58,3).
thermo(27,48,4).
thermo(27,38,5).
thermo(28,90,0).
thermo(28,80,1).
thermo(28,70,2).
thermo(28,60,3).
thermo(28,50,4).
thermo(28,40,5).
thermo(28,30,6).
thermo(29,92,0).
thermo(29,91,1).
thermo(30,96,0).
thermo(30,95,1).
thermo(31,99,0).
thermo(31,98,1).
