#const n=15.
dim(15).
col_target(0,1).
col_target(1,8).
col_target(2,6).
col_target(3,5).
col_target(4,6).
col_target(5,10).
col_target(6,9).
col_target(7,7).
col_target(8,12).
col_target(9,8).
col_target(10,8).
col_target(11,5).
col_target(12,5).
col_target(13,9).
col_target(14,13).
row_target(0,5).
row_target(1,8).
row_target(2,4).
row_target(3,5).
row_target(4,4).
row_target(5,6).
row_target(6,7).
row_target(7,8).
row_target(8,11).
row_target(9,8).
row_target(10,13).
row_target(11,10).
row_target(12,9).
row_target(13,9).
row_target(14,5).
thermo(0,0,9,0).
thermo(0,0,8,1).
thermo(0,0,7,2).
thermo(1,0,10,0).
thermo(1,0,11,1).
thermo(1,0,12,2).
thermo(1,0,13,3).
thermo(1,0,14,4).
thermo(1,1,14,5).
thermo(1,2,14,6).
thermo(1,3,14,7).
thermo(1,4,14,8).
thermo(1,5,14,9).
thermo(1,6,14,10).
thermo(1,7,14,11).
thermo(1,8,14,12).
thermo(1,9,14,13).
thermo(1,10,14,14).
thermo(1,11,14,15).
thermo(1,12,14,16).
thermo(1,13,14,17).
thermo(1,13,13,18).
thermo(1,13,12,19).
thermo(1,13,11,20).
thermo(2,1,3,0).
thermo(2,2,3,1).
thermo(2,3,3,2).
thermo(2,4,3,3).
thermo(2,5,3,4).
thermo(2,6,3,5).
thermo(3,2,5,0).
thermo(3,3,5,1).
thermo(3,3,4,2).
thermo(4,2,6,0).
thermo(4,3,6,1).
thermo(4,4,6,2).
thermo(4,4,7,3).
thermo(4,3,7,4).
thermo(4,2,7,5).
thermo(5,2,12,0).
thermo(5,1,12,1).
thermo(5,1,13,2).
thermo(5,2,13,3).
thermo(6,3,11,0).
thermo(6,3,10,1).
thermo(6,2,10,2).
thermo(6,2,11,3).
thermo(6,1,11,4).
thermo(6,1,10,5).
thermo(6,1,9,6).
thermo(6,1,8,7).
thermo(6,1,7,8).
thermo(6,1,6,9).
thermo(6,1,5,10).
thermo(6,1,4,11).
thermo(6,2,4,12).
thermo(7,4,4,0).
thermo(7,4,5,1).
thermo(7,5,5,2).
thermo(7,6,5,3).
thermo(7,7,5,4).
thermo(7,8,5,5).
thermo(7,9,5,6).
thermo(7,10,5,7).
thermo(7,11,5,8).
thermo(8,5,4,0).
thermo(8,6,4,1).
thermo(8,7,4,2).
thermo(8,8,4,3).
thermo(8,9,4,4).
thermo(8,10,4,5).
thermo(8,11,4,6).
thermo(8,12,4,7).
thermo(8,12,5,8).
thermo(9,5,6,0).
thermo(9,5,7,1).
thermo(9,6,7,2).
thermo(9,6,6,3).
thermo(10,6,12,0).
thermo(10,5,12,1).
thermo(10,5,11,2).
thermo(10,5,10,3).
thermo(10,4,10,4).
thermo(11,7,6,0).
thermo(11,7,7,1).
thermo(12,7,10,0).
thermo(12,6,10,1).
thermo(13,7,12,0).
thermo(13,8,12,1).
thermo(13,9,12,2).
thermo(13,9,11,3).
thermo(14,8,6,0).
thermo(14,8,7,1).
thermo(14,9,7,2).
thermo(14,10,7,3).
thermo(14,11,7,4).
thermo(14,11,6,5).
thermo(14,10,6,6).
thermo(14,9,6,7).
thermo(15,8,9,0).
thermo(15,7,9,1).
thermo(15,6,9,2).
thermo(15,5,9,3).
thermo(15,4,9,4).
thermo(16,8,10,0).
thermo(16,8,11,1).
thermo(16,7,11,2).
thermo(16,6,11,3).
thermo(17,9,1,0).
thermo(17,8,1,1).
thermo(17,7,1,2).
thermo(17,6,1,3).
thermo(17,5,1,4).
thermo(17,4,1,5).
thermo(17,3,1,6).
thermo(17,2,1,7).
thermo(17,1,1,8).
thermo(17,1,2,9).
thermo(18,10,1,0).
thermo(18,11,1,1).
thermo(18,12,1,2).
thermo(18,13,1,3).
thermo(18,13,2,4).
thermo(18,12,2,5).
thermo(18,11,2,6).
thermo(18,10,2,7).
thermo(18,9,2,8).
thermo(18,8,2,9).
thermo(18,7,2,10).
thermo(18,6,2,11).
thermo(18,5,2,12).
thermo(18,4,2,13).
thermo(18,3,2,14).
thermo(18,2,2,15).
thermo(19,10,9,0).
thermo(19,9,9,1).
thermo(19,9,10,2).
thermo(20,10,10,0).
thermo(20,10,11,1).
thermo(20,10,12,2).
thermo(20,11,12,3).
thermo(20,11,11,4).
thermo(21,12,9,0).
thermo(21,11,9,1).
thermo(21,11,10,2).
thermo(21,12,10,3).
thermo(22,12,12,0).
thermo(22,12,11,1).
thermo(23,12,13,0).
thermo(23,11,13,1).
thermo(23,10,13,2).
thermo(23,9,13,3).
thermo(23,8,13,4).
thermo(23,7,13,5).
thermo(23,6,13,6).
thermo(23,5,13,7).
thermo(23,4,13,8).
thermo(23,3,13,9).
thermo(23,3,12,10).
thermo(23,4,12,11).
thermo(23,4,11,12).
thermo(24,13,4,0).
thermo(24,14,4,1).
thermo(25,13,5,0).
thermo(25,14,5,1).
thermo(25,14,6,2).
thermo(26,13,10,0).
thermo(26,13,9,1).
thermo(26,13,8,2).
thermo(26,13,7,3).
thermo(26,13,6,4).
thermo(26,12,6,5).
thermo(26,12,7,6).
thermo(26,12,8,7).
thermo(26,11,8,8).
thermo(26,10,8,9).
thermo(26,9,8,10).
thermo(26,8,8,11).
thermo(26,7,8,12).
thermo(26,6,8,13).
thermo(26,5,8,14).
thermo(26,4,8,15).
thermo(26,3,8,16).
thermo(26,2,8,17).
thermo(26,2,9,18).
thermo(26,3,9,19).
thermo(27,14,1,0).
thermo(27,14,0,1).
thermo(27,13,0,2).
thermo(27,12,0,3).
thermo(27,11,0,4).
thermo(27,10,0,5).
thermo(27,9,0,6).
thermo(27,8,0,7).
thermo(27,7,0,8).
thermo(27,6,0,9).
thermo(27,5,0,10).
thermo(27,4,0,11).
thermo(27,3,0,12).
thermo(27,2,0,13).
thermo(27,1,0,14).
thermo(27,0,0,15).
thermo(27,0,1,16).
thermo(27,0,2,17).
thermo(27,0,3,18).
thermo(27,0,4,19).
thermo(27,0,5,20).
thermo(27,0,6,21).
thermo(28,14,2,0).
thermo(28,14,3,1).
thermo(28,13,3,2).
thermo(28,12,3,3).
thermo(28,11,3,4).
thermo(28,10,3,5).
thermo(28,9,3,6).
thermo(28,8,3,7).
thermo(28,7,3,8).
thermo(29,14,14,0).
thermo(29,14,13,1).
thermo(29,14,12,2).
thermo(29,14,11,3).
thermo(29,14,10,4).
thermo(29,14,9,5).
thermo(29,14,8,6).
thermo(29,14,7,7).
