#const n=10.
dim(10).
col_target(0,6).
col_target(1,5).
col_target(2,7).
col_target(3,2).
col_target(4,1).
col_target(5,2).
col_target(6,8).
col_target(7,7).
col_target(8,6).
col_target(9,5).
row_target(0,3).
row_target(1,4).
row_target(2,4).
row_target(3,6).
row_target(4,5).
row_target(5,6).
row_target(6,4).
row_target(7,4).
row_target(8,5).
row_target(9,8).
thermo(0,1,1,0).
thermo(0,1,0,1).
thermo(0,0,0,2).
thermo(0,0,1,3).
thermo(0,0,2,4).
thermo(0,0,3,5).
thermo(1,1,6,0).
thermo(1,1,5,1).
thermo(1,1,4,2).
thermo(1,1,3,3).
thermo(1,1,2,4).
thermo(2,1,7,0).
thermo(2,0,7,1).
thermo(2,0,6,2).
thermo(2,0,5,3).
thermo(2,0,4,4).
thermo(3,2,7,0).
thermo(3,2,6,1).
thermo(3,2,5,2).
thermo(3,2,4,3).
thermo(4,3,4,0).
thermo(4,3,3,1).
thermo(5,3,5,0).
thermo(5,4,5,1).
thermo(5,4,4,2).
thermo(5,5,4,3).
thermo(6,3,6,0).
thermo(6,4,6,1).
thermo(6,5,6,2).
thermo(6,6,6,3).
thermo(6,6,7,4).
thermo(6,5,7,5).
thermo(7,3,7,0).
thermo(7,4,7,1).
thermo(8,3,8,0).
thermo(8,2,8,1).
thermo(8,1,8,2).
thermo(8,1,9,3).
thermo(8,0,9,4).
thermo(8,0,8,5).
thermo(9,4,2,0).
thermo(9,3,2,1).
thermo(9,2,2,2).
thermo(9,2,3,3).
thermo(10,4,3,0).
thermo(10,5,3,1).
thermo(11,4,8,0).
thermo(11,5,8,1).
thermo(11,6,8,2).
thermo(11,7,8,3).
thermo(11,8,8,4).
thermo(11,9,8,5).
thermo(11,9,9,6).
thermo(11,8,9,7).
thermo(11,7,9,8).
thermo(11,6,9,9).
thermo(11,5,9,10).
thermo(11,4,9,11).
thermo(11,3,9,12).
thermo(11,2,9,13).
thermo(12,5,0,0).
thermo(12,4,0,1).
thermo(12,3,0,2).
thermo(12,2,0,3).
thermo(12,2,1,4).
thermo(12,3,1,5).
thermo(12,4,1,6).
thermo(12,5,1,7).
thermo(12,6,1,8).
thermo(12,7,1,9).
thermo(12,8,1,10).
thermo(12,9,1,11).
thermo(13,5,2,0).
thermo(13,6,2,1).
thermo(13,7,2,2).
thermo(13,8,2,3).
thermo(13,8,3,4).
thermo(13,7,3,5).
thermo(14,6,5,0).
thermo(14,5,5,1).
thermo(15,7,5,0).
thermo(15,7,6,1).
thermo(15,8,6,2).
thermo(15,8,5,3).
thermo(15,8,4,4).
thermo(15,7,4,5).
thermo(15,6,4,6).
thermo(15,6,3,7).
thermo(16,9,0,0).
thermo(16,8,0,1).
thermo(16,7,0,2).
thermo(16,6,0,3).
thermo(17,9,2,0).
thermo(17,9,3,1).
thermo(17,9,4,2).
thermo(17,9,5,3).
thermo(17,9,6,4).
thermo(17,9,7,5).
thermo(17,8,7,6).
thermo(17,7,7,7).
