#const n=6.
dim(6).
col_target(0,1).
col_target(1,3).
col_target(2,3).
col_target(3,5).
col_target(4,3).
col_target(5,2).
row_target(0,2).
row_target(1,3).
row_target(2,4).
row_target(3,1).
row_target(4,4).
row_target(5,3).
thermo(0,0,4,0).
thermo(0,0,5,1).
thermo(0,1,5,2).
thermo(0,1,4,3).
thermo(1,1,1,0).
thermo(1,1,2,1).
thermo(1,1,3,2).
thermo(1,0,3,3).
thermo(1,0,2,4).
thermo(2,2,0,0).
thermo(2,1,0,1).
thermo(2,0,0,2).
thermo(2,0,1,3).
thermo(3,3,1,0).
thermo(3,3,2,1).
thermo(4,3,5,0).
thermo(4,2,5,1).
thermo(4,2,4,2).
thermo(4,2,3,3).
thermo(4,2,2,4).
thermo(4,2,1,5).
thermo(5,4,1,0).
thermo(5,4,2,1).
thermo(5,4,3,2).
thermo(5,4,4,3).
thermo(5,3,4,4).
thermo(5,3,3,5).
thermo(6,5,0,0).
thermo(6,4,0,1).
thermo(6,3,0,2).
thermo(7,5,1,0).
thermo(7,5,2,1).
thermo(7,5,3,2).
thermo(7,5,4,3).
thermo(7,5,5,4).
thermo(7,4,5,5).
