#const n=20.
dim(20).
col_target(0,10).
col_target(1,11).
col_target(2,2).
col_target(3,4).
col_target(4,16).
col_target(5,11).
col_target(6,9).
col_target(7,10).
col_target(8,17).
col_target(9,13).
col_target(10,12).
col_target(11,12).
col_target(12,11).
col_target(13,19).
col_target(14,10).
col_target(15,13).
col_target(16,8).
col_target(17,8).
col_target(18,1).
col_target(19,2).
row_target(0,8).
row_target(1,1).
row_target(2,10).
row_target(3,9).
row_target(4,9).
row_target(5,7).
row_target(6,10).
row_target(7,12).
row_target(8,15).
row_target(9,7).
row_target(10,13).
row_target(11,12).
row_target(12,9).
row_target(13,11).
row_target(14,10).
row_target(15,13).
row_target(16,11).
row_target(17,13).
row_target(18,12).
row_target(19,7).
thermo(0,0,0,0).
thermo(0,0,1,1).
thermo(1,0,4,0).
thermo(1,0,3,1).
thermo(2,0,7,0).
thermo(2,0,6,1).
thermo(2,0,5,2).
thermo(3,0,9,0).
thermo(3,0,8,1).
thermo(4,0,10,0).
thermo(4,0,11,1).
thermo(4,0,12,2).
thermo(5,0,15,0).
thermo(5,0,14,1).
thermo(5,0,13,2).
thermo(6,0,16,0).
thermo(6,0,17,1).
thermo(6,0,18,2).
thermo(7,0,19,0).
thermo(7,1,19,1).
thermo(7,2,19,2).
thermo(7,3,19,3).
thermo(8,1,0,0).
thermo(8,2,0,1).
thermo(9,1,1,0).
thermo(9,2,1,1).
thermo(9,3,1,2).
thermo(9,4,1,3).
thermo(9,5,1,4).
thermo(9,6,1,5).
thermo(10,1,2,0).
thermo(10,0,2,1).
thermo(11,1,18,0).
thermo(11,1,17,1).
thermo(11,1,16,2).
thermo(11,1,15,3).
thermo(11,1,14,4).
thermo(11,1,13,5).
thermo(11,1,12,6).
thermo(11,1,11,7).
thermo(11,1,10,8).
thermo(11,1,9,9).
thermo(11,1,8,10).
thermo(11,1,7,11).
thermo(11,1,6,12).
thermo(11,1,5,13).
thermo(11,1,4,14).
thermo(11,1,3,15).
thermo(12,2,6,0).
thermo(12,2,5,1).
thermo(12,2,4,2).
thermo(12,2,3,3).
thermo(12,2,2,4).
thermo(13,2,7,0).
thermo(13,3,7,1).
thermo(14,2,8,0).
thermo(14,2,9,1).
thermo(14,2,10,2).
thermo(14,2,11,3).
thermo(14,2,12,4).
thermo(14,2,13,5).
thermo(14,2,14,6).
thermo(14,2,15,7).
thermo(14,2,16,8).
thermo(14,2,17,9).
thermo(15,3,6,0).
thermo(15,3,5,1).
thermo(15,3,4,2).
thermo(15,3,3,3).
thermo(15,3,2,4).
thermo(16,3,8,0).
thermo(16,3,9,1).
thermo(16,3,10,2).
thermo(16,3,11,3).
thermo(17,3,17,0).
thermo(17,3,16,1).
thermo(17,3,15,2).
thermo(17,3,14,3).
thermo(17,3,13,4).
thermo(18,3,18,0).
thermo(18,2,18,1).
thermo(19,4,0,0).
thermo(19,3,0,1).
thermo(20,4,2,0).
thermo(20,4,3,1).
thermo(20,4,4,2).
thermo(20,4,5,3).
thermo(20,4,6,4).
thermo(21,4,11,0).
thermo(21,4,10,1).
thermo(21,4,9,2).
thermo(21,4,8,3).
thermo(21,4,7,4).
thermo(22,4,12,0).
thermo(22,3,12,1).
thermo(23,4,13,0).
thermo(23,4,14,1).
thermo(24,4,15,0).
thermo(24,4,16,1).
thermo(24,4,17,2).
thermo(24,4,18,3).
thermo(24,4,19,4).
thermo(25,5,2,0).
thermo(25,6,2,1).
thermo(25,7,2,2).
thermo(26,5,11,0).
thermo(26,5,10,1).
thermo(26,5,9,2).
thermo(26,5,8,3).
thermo(26,5,7,4).
thermo(26,5,6,5).
thermo(26,5,5,6).
thermo(26,5,4,7).
thermo(26,5,3,8).
thermo(27,5,17,0).
thermo(27,5,16,1).
thermo(27,5,15,2).
thermo(27,5,14,3).
thermo(27,5,13,4).
thermo(27,5,12,5).
thermo(28,5,18,0).
thermo(28,6,18,1).
thermo(29,5,19,0).
thermo(29,6,19,1).
thermo(30,6,5,0).
thermo(30,6,4,1).
thermo(30,6,3,2).
thermo(31,6,6,0).
thermo(31,7,6,1).
thermo(32,6,7,0).
thermo(32,6,8,1).
thermo(32,6,9,2).
thermo(32,6,10,3).
thermo(32,6,11,4).
thermo(32,6,12,5).
thermo(32,6,13,6).
thermo(32,6,14,7).
thermo(32,6,15,8).
thermo(32,6,16,9).
thermo(32,6,17,10).
thermo(33,7,1,0).
thermo(33,8,1,1).
thermo(34,7,3,0).
thermo(34,7,4,1).
thermo(34,7,5,2).
thermo(35,7,7,0).
thermo(35,7,8,1).
thermo(35,7,9,2).
thermo(36,7,10,0).
thermo(36,7,11,1).
thermo(36,7,12,2).
thermo(36,7,13,3).
thermo(36,7,14,4).
thermo(36,7,15,5).
thermo(36,7,16,6).
thermo(36,7,17,7).
thermo(36,7,18,8).
thermo(36,7,19,9).
thermo(37,8,0,0).
thermo(37,7,0,1).
thermo(37,6,0,2).
thermo(37,5,0,3).
thermo(38,8,7,0).
thermo(38,8,6,1).
thermo(38,8,5,2).
thermo(38,8,4,3).
thermo(38,8,3,4).
thermo(38,8,2,5).
thermo(39,8,10,0).
thermo(39,8,9,1).
thermo(39,8,8,2).
thermo(40,8,11,0).
thermo(40,8,12,1).
thermo(40,8,13,2).
thermo(41,8,18,0).
thermo(41,8,17,1).
thermo(41,8,16,2).
thermo(41,8,15,3).
thermo(41,8,14,4).
thermo(42,9,0,0).
thermo(42,10,0,1).
thermo(43,9,4,0).
thermo(43,9,3,1).
thermo(43,9,2,2).
thermo(43,9,1,3).
thermo(44,9,6,0).
thermo(44,9,5,1).
thermo(45,9,10,0).
thermo(45,9,9,1).
thermo(45,9,8,2).
thermo(45,9,7,3).
thermo(46,9,11,0).
thermo(46,9,12,1).
thermo(46,9,13,2).
thermo(46,9,14,3).
thermo(46,9,15,4).
thermo(46,9,16,5).
thermo(46,9,17,6).
thermo(47,9,19,0).
thermo(47,8,19,1).
thermo(48,10,17,0).
thermo(48,10,16,1).
thermo(48,10,15,2).
thermo(48,10,14,3).
thermo(48,10,13,4).
thermo(48,10,12,5).
thermo(48,10,11,6).
thermo(48,10,10,7).
thermo(48,10,9,8).
thermo(48,10,8,9).
thermo(48,10,7,10).
thermo(48,10,6,11).
thermo(48,10,5,12).
thermo(48,10,4,13).
thermo(48,10,3,14).
thermo(48,10,2,15).
thermo(48,10,1,16).
thermo(49,11,3,0).
thermo(49,11,2,1).
thermo(50,11,15,0).
thermo(50,11,14,1).
thermo(50,11,13,2).
thermo(50,11,12,3).
thermo(50,11,11,4).
thermo(50,11,10,5).
thermo(50,11,9,6).
thermo(50,11,8,7).
thermo(50,11,7,8).
thermo(50,11,6,9).
thermo(50,11,5,10).
thermo(50,11,4,11).
thermo(51,11,17,0).
thermo(51,11,16,1).
thermo(52,11,19,0).
thermo(52,10,19,1).
thermo(53,12,0,0).
thermo(53,11,0,1).
thermo(54,12,9,0).
thermo(54,12,8,1).
thermo(54,12,7,2).
thermo(54,12,6,3).
thermo(54,12,5,4).
thermo(54,12,4,5).
thermo(54,12,3,6).
thermo(54,12,2,7).
thermo(55,12,10,0).
thermo(55,13,10,1).
thermo(56,12,15,0).
thermo(56,12,14,1).
thermo(56,12,13,2).
thermo(56,12,12,3).
thermo(56,12,11,4).
thermo(57,12,17,0).
thermo(57,12,16,1).
thermo(58,13,0,0).
thermo(58,14,0,1).
thermo(58,15,0,2).
thermo(58,16,0,3).
thermo(58,17,0,4).
thermo(58,18,0,5).
thermo(59,13,7,0).
thermo(59,13,6,1).
thermo(59,13,5,2).
thermo(59,13,4,3).
thermo(59,13,3,4).
thermo(59,13,2,5).
thermo(60,13,8,0).
thermo(60,14,8,1).
thermo(61,13,9,0).
thermo(61,14,9,1).
thermo(62,13,17,0).
thermo(62,13,16,1).
thermo(62,13,15,2).
thermo(62,13,14,3).
thermo(62,13,13,4).
thermo(62,13,12,5).
thermo(62,13,11,6).
thermo(63,14,3,0).
thermo(63,14,4,1).
thermo(63,14,5,2).
thermo(63,14,6,3).
thermo(63,14,7,4).
thermo(64,14,17,0).
thermo(64,14,16,1).
thermo(64,14,15,2).
thermo(64,14,14,3).
thermo(64,14,13,4).
thermo(64,14,12,5).
thermo(64,14,11,6).
thermo(64,14,10,7).
thermo(65,15,1,0).
thermo(65,14,1,1).
thermo(65,13,1,2).
thermo(65,12,1,3).
thermo(65,11,1,4).
thermo(66,15,3,0).
thermo(66,15,4,1).
thermo(66,15,5,2).
thermo(66,15,6,3).
thermo(66,15,7,4).
thermo(66,15,8,5).
thermo(66,15,9,6).
thermo(66,15,10,7).
thermo(66,15,11,8).
thermo(66,15,12,9).
thermo(66,15,13,10).
thermo(66,15,14,11).
thermo(66,15,15,12).
thermo(66,15,16,13).
thermo(66,15,17,14).
thermo(67,15,18,0).
thermo(67,14,18,1).
thermo(67,13,18,2).
thermo(67,12,18,3).
thermo(67,11,18,4).
thermo(67,10,18,5).
thermo(67,9,18,6).
thermo(68,15,19,0).
thermo(68,14,19,1).
thermo(68,13,19,2).
thermo(68,12,19,3).
thermo(69,16,1,0).
thermo(69,17,1,1).
thermo(70,16,11,0).
thermo(70,16,10,1).
thermo(70,16,9,2).
thermo(70,16,8,3).
thermo(70,16,7,4).
thermo(70,16,6,5).
thermo(70,16,5,6).
thermo(71,16,12,0).
thermo(71,16,13,1).
thermo(72,16,14,0).
thermo(72,16,15,1).
thermo(72,16,16,2).
thermo(72,16,17,3).
thermo(72,16,18,4).
thermo(72,16,19,5).
thermo(73,17,2,0).
thermo(73,16,2,1).
thermo(73,15,2,2).
thermo(73,14,2,3).
thermo(74,17,4,0).
thermo(74,16,4,1).
thermo(75,17,5,0).
thermo(75,17,6,1).
thermo(75,17,7,2).
thermo(75,17,8,3).
thermo(75,17,9,4).
thermo(75,17,10,5).
thermo(75,17,11,6).
thermo(75,17,12,7).
thermo(76,17,13,0).
thermo(76,18,13,1).
thermo(77,17,17,0).
thermo(77,17,16,1).
thermo(77,17,15,2).
thermo(77,17,14,3).
thermo(78,17,18,0).
thermo(78,18,18,1).
thermo(79,18,1,0).
thermo(79,18,2,1).
thermo(80,18,3,0).
thermo(80,17,3,1).
thermo(80,16,3,2).
thermo(81,18,5,0).
thermo(81,18,4,1).
thermo(82,18,12,0).
thermo(82,18,11,1).
thermo(82,18,10,2).
thermo(82,18,9,3).
thermo(82,18,8,4).
thermo(82,18,7,5).
thermo(82,18,6,6).
thermo(83,18,17,0).
thermo(83,18,16,1).
thermo(83,18,15,2).
thermo(83,18,14,3).
thermo(84,18,19,0).
thermo(84,17,19,1).
thermo(85,19,0,0).
thermo(85,19,1,1).
thermo(85,19,2,2).
thermo(85,19,3,3).
thermo(85,19,4,4).
thermo(85,19,5,5).
thermo(85,19,6,6).
thermo(86,19,7,0).
thermo(86,19,8,1).
thermo(86,19,9,2).
thermo(86,19,10,3).
thermo(86,19,11,4).
thermo(86,19,12,5).
thermo(86,19,13,6).
thermo(86,19,14,7).
thermo(86,19,15,8).
thermo(86,19,16,9).
thermo(86,19,17,10).
thermo(86,19,18,11).
thermo(86,19,19,12).
