#const n=6.
dim(6).
col_target(0,3).
col_target(1,4).
col_target(2,1).
col_target(3,2).
col_target(4,4).
col_target(5,3).
row_target(0,3).
row_target(1,3).
row_target(2,3).
row_target(3,2).
row_target(4,3).
row_target(5,3).
thermo(0,0,1,0).
thermo(0,0,0,1).
thermo(1,0,4,0).
thermo(1,0,3,1).
thermo(1,0,2,2).
thermo(2,1,0,0).
thermo(2,2,0,1).
thermo(2,3,0,2).
thermo(2,4,0,3).
thermo(3,1,1,0).
thermo(3,1,2,1).
thermo(3,1,3,2).
thermo(4,1,4,0).
thermo(4,2,4,1).
thermo(4,3,4,2).
thermo(4,4,4,3).
thermo(4,5,4,4).
thermo(5,2,1,0).
thermo(5,3,1,1).
thermo(6,2,2,0).
thermo(6,2,3,1).
thermo(7,3,2,0).
thermo(7,3,3,1).
thermo(8,3,5,0).
thermo(8,2,5,1).
thermo(8,1,5,2).
thermo(8,0,5,3).
thermo(9,4,1,0).
thermo(9,4,2,1).
thermo(9,4,3,2).
thermo(10,5,0,0).
thermo(10,5,1,1).
thermo(10,5,2,2).
thermo(10,5,3,3).
thermo(11,5,5,0).
thermo(11,4,5,1).
