#const n=15.
dim(15).
col_target(0,1).
col_target(1,12).
col_target(2,12).
col_target(3,7).
col_target(4,5).
col_target(5,10).
col_target(6,3).
col_target(7,9).
col_target(8,9).
col_target(9,5).
col_target(10,5).
col_target(11,5).
col_target(12,14).
col_target(13,7).
col_target(14,8).
row_target(0,9).
row_target(1,8).
row_target(2,8).
row_target(3,6).
row_target(4,8).
row_target(5,11).
row_target(6,8).
row_target(7,12).
row_target(8,1).
row_target(9,3).
row_target(10,7).
row_target(11,11).
row_target(12,5).
row_target(13,6).
row_target(14,9).
thermo(0,0,0,0).
thermo(0,1,0,1).
thermo(0,2,0,2).
thermo(0,3,0,3).
thermo(0,4,0,4).
thermo(0,5,0,5).
thermo(0,6,0,6).
thermo(0,7,0,7).
thermo(0,8,0,8).
thermo(0,9,0,9).
thermo(0,10,0,10).
thermo(0,11,0,11).
thermo(0,12,0,12).
thermo(0,13,0,13).
thermo(0,14,0,14).
thermo(1,0,1,0).
thermo(1,1,1,1).
thermo(1,2,1,2).
thermo(1,3,1,3).
thermo(1,4,1,4).
thermo(1,5,1,5).
thermo(1,6,1,6).
thermo(1,7,1,7).
thermo(1,8,1,8).
thermo(1,9,1,9).
thermo(1,10,1,10).
thermo(1,11,1,11).
thermo(2,0,3,0).
thermo(2,0,2,1).
thermo(3,0,4,0).
thermo(3,1,4,1).
thermo(4,0,7,0).
thermo(4,1,7,1).
thermo(5,0,8,0).
thermo(5,1,8,1).
thermo(5,2,8,2).
thermo(6,0,9,0).
thermo(6,1,9,1).
thermo(6,2,9,2).
thermo(6,3,9,3).
thermo(7,0,10,0).
thermo(7,0,11,1).
thermo(7,0,12,2).
thermo(8,0,14,0).
thermo(8,0,13,1).
thermo(9,1,2,0).
thermo(9,1,3,1).
thermo(10,1,5,0).
thermo(10,0,5,1).
thermo(11,1,6,0).
thermo(11,0,6,1).
thermo(12,1,10,0).
thermo(12,2,10,1).
thermo(12,3,10,2).
thermo(13,1,11,0).
thermo(13,2,11,1).
thermo(14,1,12,0).
thermo(14,1,13,1).
thermo(14,1,14,2).
thermo(15,2,7,0).
thermo(15,2,6,1).
thermo(15,2,5,2).
thermo(15,2,4,3).
thermo(15,2,3,4).
thermo(15,2,2,5).
thermo(16,2,12,0).
thermo(16,2,13,1).
thermo(17,2,14,0).
thermo(17,3,14,1).
thermo(18,3,2,0).
thermo(18,3,3,1).
thermo(19,3,5,0).
thermo(19,3,4,1).
thermo(20,3,6,0).
thermo(20,4,6,1).
thermo(21,3,8,0).
thermo(21,3,7,1).
thermo(22,3,13,0).
thermo(22,3,12,1).
thermo(22,3,11,2).
thermo(23,4,2,0).
thermo(23,4,3,1).
thermo(23,4,4,2).
thermo(24,4,5,0).
thermo(24,5,5,1).
thermo(24,6,5,2).
thermo(25,4,7,0).
thermo(25,4,8,1).
thermo(25,4,9,2).
thermo(25,4,10,3).
thermo(26,4,11,0).
thermo(26,5,11,1).
thermo(27,4,14,0).
thermo(27,4,13,1).
thermo(27,4,12,2).
thermo(28,5,4,0).
thermo(28,5,3,1).
thermo(28,5,2,2).
thermo(29,5,10,0).
thermo(29,5,9,1).
thermo(29,5,8,2).
thermo(29,5,7,3).
thermo(30,5,13,0).
thermo(30,5,12,1).
thermo(31,5,14,0).
thermo(31,6,14,1).
thermo(31,7,14,2).
thermo(32,6,4,0).
thermo(32,6,3,1).
thermo(32,6,2,2).
thermo(33,6,6,0).
thermo(33,5,6,1).
thermo(34,6,9,0).
thermo(34,6,8,1).
thermo(34,6,7,2).
thermo(35,6,10,0).
thermo(35,6,11,1).
thermo(35,6,12,2).
thermo(36,6,13,0).
thermo(36,7,13,1).
thermo(37,7,2,0).
thermo(37,7,3,1).
thermo(37,7,4,2).
thermo(37,7,5,3).
thermo(37,7,6,4).
thermo(37,7,7,5).
thermo(37,7,8,6).
thermo(37,7,9,7).
thermo(37,7,10,8).
thermo(38,7,11,0).
thermo(38,7,12,1).
thermo(39,8,13,0).
thermo(39,8,12,1).
thermo(39,8,11,2).
thermo(39,8,10,3).
thermo(39,8,9,4).
thermo(39,8,8,5).
thermo(39,8,7,6).
thermo(39,8,6,7).
thermo(39,8,5,8).
thermo(39,8,4,9).
thermo(39,8,3,10).
thermo(39,8,2,11).
thermo(40,8,14,0).
thermo(40,9,14,1).
thermo(41,9,4,0).
thermo(41,9,3,1).
thermo(41,9,2,2).
thermo(42,9,13,0).
thermo(42,9,12,1).
thermo(42,9,11,2).
thermo(42,9,10,3).
thermo(42,9,9,4).
thermo(42,9,8,5).
thermo(42,9,7,6).
thermo(42,9,6,7).
thermo(42,9,5,8).
thermo(43,10,10,0).
thermo(43,10,9,1).
thermo(43,10,8,2).
thermo(43,10,7,3).
thermo(43,10,6,4).
thermo(43,10,5,5).
thermo(43,10,4,6).
thermo(43,10,3,7).
thermo(43,10,2,8).
thermo(44,10,11,0).
thermo(44,10,12,1).
thermo(44,10,13,2).
thermo(44,10,14,3).
thermo(45,11,6,0).
thermo(45,11,5,1).
thermo(45,11,4,2).
thermo(45,11,3,3).
thermo(45,11,2,4).
thermo(46,11,9,0).
thermo(46,11,8,1).
thermo(46,11,7,2).
thermo(47,11,10,0).
thermo(47,11,11,1).
thermo(48,11,14,0).
thermo(48,11,13,1).
thermo(48,11,12,2).
thermo(49,12,1,0).
thermo(49,12,2,1).
thermo(49,12,3,2).
thermo(49,12,4,3).
thermo(50,12,5,0).
thermo(50,13,5,1).
thermo(50,14,5,2).
thermo(51,12,6,0).
thermo(51,13,6,1).
thermo(51,14,6,2).
thermo(52,12,12,0).
thermo(52,12,11,1).
thermo(52,12,10,2).
thermo(52,12,9,3).
thermo(52,12,8,4).
thermo(53,12,13,0).
thermo(53,13,13,1).
thermo(54,12,14,0).
thermo(54,13,14,1).
thermo(55,13,1,0).
thermo(55,14,1,1).
thermo(56,13,3,0).
thermo(56,13,2,1).
thermo(57,13,4,0).
thermo(57,14,4,1).
thermo(58,13,7,0).
thermo(58,12,7,1).
thermo(59,13,8,0).
thermo(59,13,9,1).
thermo(60,13,12,0).
thermo(60,13,11,1).
thermo(60,13,10,2).
thermo(61,14,2,0).
thermo(61,14,3,1).
thermo(62,14,8,0).
thermo(62,14,7,1).
thermo(63,14,9,0).
thermo(63,14,10,1).
thermo(63,14,11,2).
thermo(63,14,12,3).
thermo(63,14,13,4).
thermo(63,14,14,5).
