#const n=10.
dim(10).
col_target(0,1).
col_target(1,4).
col_target(2,3).
col_target(3,3).
col_target(4,7).
col_target(5,7).
col_target(6,5).
col_target(7,6).
col_target(8,8).
col_target(9,5).
row_target(0,6).
row_target(1,7).
row_target(2,2).
row_target(3,7).
row_target(4,3).
row_target(5,6).
row_target(6,2).
row_target(7,5).
row_target(8,5).
row_target(9,6).
thermo(0,0,0,0).
thermo(0,0,1,1).
thermo(0,0,2,2).
thermo(0,0,3,3).
thermo(0,0,4,4).
thermo(0,0,5,5).
thermo(0,0,6,6).
thermo(0,0,7,7).
thermo(0,0,8,8).
thermo(1,1,1,0).
thermo(1,1,0,1).
thermo(2,1,2,0).
thermo(2,1,3,1).
thermo(2,1,4,2).
thermo(2,1,5,3).
thermo(2,1,6,4).
thermo(2,1,7,5).
thermo(2,1,8,6).
thermo(3,2,0,0).
thermo(3,2,1,1).
thermo(4,2,2,0).
thermo(4,2,3,1).
thermo(5,2,4,0).
thermo(5,2,5,1).
thermo(6,2,8,0).
thermo(6,2,7,1).
thermo(6,2,6,2).
thermo(7,3,2,0).
thermo(7,4,2,1).
thermo(8,3,5,0).
thermo(8,3,4,1).
thermo(8,3,3,2).
thermo(9,3,7,0).
thermo(9,3,6,1).
thermo(10,4,6,0).
thermo(10,4,5,1).
thermo(10,4,4,2).
thermo(10,4,3,3).
thermo(11,4,7,0).
thermo(11,5,7,1).
thermo(12,4,9,0).
thermo(12,3,9,1).
thermo(12,2,9,2).
thermo(12,1,9,3).
thermo(12,0,9,4).
thermo(13,5,1,0).
thermo(13,4,1,1).
thermo(13,3,1,2).
thermo(14,5,2,0).
thermo(14,5,3,1).
thermo(14,5,4,2).
thermo(14,5,5,3).
thermo(15,5,6,0).
thermo(15,6,6,1).
thermo(15,7,6,2).
thermo(16,5,9,0).
thermo(16,6,9,1).
thermo(17,6,3,0).
thermo(17,6,2,1).
thermo(17,6,1,2).
thermo(18,6,4,0).
thermo(18,6,5,1).
thermo(19,6,7,0).
thermo(19,7,7,1).
thermo(19,8,7,2).
thermo(19,9,7,3).
thermo(20,7,1,0).
thermo(20,8,1,1).
thermo(21,7,2,0).
thermo(21,8,2,1).
thermo(22,7,3,0).
thermo(22,8,3,1).
thermo(22,9,3,2).
thermo(23,7,5,0).
thermo(23,7,4,1).
thermo(24,7,9,0).
thermo(24,8,9,1).
thermo(25,8,4,0).
thermo(25,9,4,1).
thermo(26,8,6,0).
thermo(26,8,5,1).
thermo(27,8,8,0).
thermo(27,7,8,1).
thermo(27,6,8,2).
thermo(27,5,8,3).
thermo(27,4,8,4).
thermo(27,3,8,5).
thermo(28,9,0,0).
thermo(28,8,0,1).
thermo(28,7,0,2).
thermo(28,6,0,3).
thermo(28,5,0,4).
thermo(28,4,0,5).
thermo(28,3,0,6).
thermo(29,9,2,0).
thermo(29,9,1,1).
thermo(30,9,6,0).
thermo(30,9,5,1).
thermo(31,9,9,0).
thermo(31,9,8,1).
